<instance format="XCSP3" type="COP">
  <variables>
    <array id="x" size="[100]"> 0..99 </array>
  </variables>
  <constraints>
    <group>
      <intension> ne(%0,%1) </intension>
      <args> x[0] x[2] </args>
      <args> x[0] x[3] </args>
      <args> x[0] x[8] </args>
      <args> x[0] x[22] </args>
      <args> x[1] x[5] </args>
      <args> x[1] x[7] </args>
      <args> x[1] x[10] </args>
      <args> x[1] x[31] </args>
      <args> x[2] x[3] </args>
      <args> x[2] x[4] </args>
      <args> x[3] x[20] </args>
      <args> x[3] x[21] </args>
      <args> x[4] x[6] </args>
      <args> x[4] x[44] </args>
      <args> x[4] x[45] </args>
      <args> x[5] x[17] </args>
      <args> x[5] x[18] </args>
      <args> x[5] x[43] </args>
      <args> x[6] x[11] </args>
      <args> x[6] x[12] </args>
      <args> x[6] x[16] </args>
      <args> x[7] x[8] </args>
      <args> x[7] x[9] </args>
      <args> x[8] x[9] </args>
      <args> x[9] x[23] </args>
      <args> x[9] x[24] </args>
      <args> x[10] x[14] </args>
      <args> x[10] x[40] </args>
      <args> x[10] x[61] </args>
      <args> x[11] x[12] </args>
      <args> x[11] x[25] </args>
      <args> x[12] x[63] </args>
      <args> x[12] x[64] </args>
      <args> x[13] x[14] </args>
      <args> x[13] x[15] </args>
      <args> x[13] x[52] </args>
      <args> x[13] x[58] </args>
      <args> x[14] x[15] </args>
      <args> x[15] x[42] </args>
      <args> x[15] x[46] </args>
      <args> x[16] x[18] </args>
      <args> x[16] x[29] </args>
      <args> x[16] x[30] </args>
      <args> x[17] x[28] </args>
      <args> x[17] x[49] </args>
      <args> x[18] x[50] </args>
      <args> x[18] x[51] </args>
      <args> x[19] x[20] </args>
      <args> x[19] x[21] </args>
      <args> x[19] x[32] </args>
      <args> x[19] x[33] </args>
      <args> x[20] x[21] </args>
      <args> x[22] x[23] </args>
      <args> x[22] x[24] </args>
      <args> x[23] x[24] </args>
      <args> x[25] x[26] </args>
      <args> x[25] x[27] </args>
      <args> x[26] x[27] </args>
      <args> x[26] x[53] </args>
      <args> x[26] x[54] </args>
      <args> x[27] x[35] </args>
      <args> x[27] x[36] </args>
      <args> x[28] x[29] </args>
      <args> x[28] x[30] </args>
      <args> x[29] x[30] </args>
      <args> x[31] x[32] </args>
      <args> x[31] x[33] </args>
      <args> x[32] x[33] </args>
      <args> x[34] x[35] </args>
      <args> x[34] x[36] </args>
      <args> x[34] x[59] </args>
      <args> x[34] x[60] </args>
      <args> x[35] x[70] </args>
      <args> x[36] x[38] </args>
      <args> x[36] x[39] </args>
      <args> x[37] x[38] </args>
      <args> x[37] x[39] </args>
      <args> x[37] x[72] </args>
      <args> x[37] x[94] </args>
      <args> x[38] x[39] </args>
      <args> x[40] x[41] </args>
      <args> x[40] x[77] </args>
      <args> x[40] x[82] </args>
      <args> x[41] x[42] </args>
      <args> x[41] x[47] </args>
      <args> x[41] x[48] </args>
      <args> x[42] x[76] </args>
      <args> x[43] x[45] </args>
      <args> x[43] x[86] </args>
      <args> x[43] x[87] </args>
      <args> x[44] x[45] </args>
      <args> x[44] x[85] </args>
      <args> x[46] x[47] </args>
      <args> x[46] x[56] </args>
      <args> x[46] x[57] </args>
      <args> x[47] x[48] </args>
      <args> x[48] x[98] </args>
      <args> x[48] x[99] </args>
      <args> x[49] x[51] </args>
      <args> x[49] x[92] </args>
      <args> x[49] x[93] </args>
      <args> x[50] x[51] </args>
      <args> x[50] x[91] </args>
      <args> x[52] x[53] </args>
      <args> x[52] x[54] </args>
      <args> x[53] x[54] </args>
      <args> x[55] x[57] </args>
      <args> x[55] x[68] </args>
      <args> x[55] x[69] </args>
      <args> x[55] x[97] </args>
      <args> x[56] x[57] </args>
      <args> x[56] x[67] </args>
      <args> x[58] x[59] </args>
      <args> x[58] x[60] </args>
      <args> x[59] x[74] </args>
      <args> x[59] x[75] </args>
      <args> x[60] x[73] </args>
      <args> x[61] x[62] </args>
      <args> x[61] x[63] </args>
      <args> x[62] x[63] </args>
      <args> x[62] x[65] </args>
      <args> x[62] x[66] </args>
      <args> x[64] x[65] </args>
      <args> x[64] x[66] </args>
      <args> x[65] x[66] </args>
      <args> x[67] x[68] </args>
      <args> x[67] x[69] </args>
      <args> x[68] x[69] </args>
      <args> x[70] x[71] </args>
      <args> x[70] x[72] </args>
      <args> x[71] x[72] </args>
      <args> x[71] x[95] </args>
      <args> x[71] x[96] </args>
      <args> x[73] x[74] </args>
      <args> x[73] x[75] </args>
      <args> x[74] x[75] </args>
      <args> x[76] x[77] </args>
      <args> x[76] x[78] </args>
      <args> x[77] x[89] </args>
      <args> x[77] x[90] </args>
      <args> x[78] x[80] </args>
      <args> x[78] x[81] </args>
      <args> x[78] x[88] </args>
      <args> x[79] x[80] </args>
      <args> x[79] x[81] </args>
      <args> x[79] x[83] </args>
      <args> x[79] x[84] </args>
      <args> x[80] x[81] </args>
      <args> x[82] x[83] </args>
      <args> x[82] x[84] </args>
      <args> x[83] x[84] </args>
      <args> x[85] x[86] </args>
      <args> x[85] x[87] </args>
      <args> x[86] x[87] </args>
      <args> x[88] x[89] </args>
      <args> x[88] x[90] </args>
      <args> x[89] x[90] </args>
      <args> x[91] x[92] </args>
      <args> x[91] x[93] </args>
      <args> x[92] x[93] </args>
      <args> x[94] x[95] </args>
      <args> x[94] x[96] </args>
      <args> x[95] x[96] </args>
      <args> x[97] x[98] </args>
      <args> x[97] x[99] </args>
      <args> x[98] x[99] </args>
    </group>
  </constraints>
  <objectives>
    <minimize type="maximum"> x[] </minimize>
  </objectives>
</instance>
